c A 3-SAT instance for the given clauses
p cnf 290 271
9 -3 21
-21 16 22
-22 4 23
-23 -16 24
-24 20 25
-25 -4 26
-26 6 27
-27 5 28
-28 -6 29
-29 -5 30
-30 4 31
-31 -6 32
-32 -12 33
-33 -13 34
-34 -19 35
-35 -16 36
-36 13 37
-37 1 38
-38 -20 39
-39 -9 40
-40 6 41
-41 -2 42
-42 5 43
-43 -4 44
-44 -11 45
-45 15 46
-46 -16 47
-47 8 48
-48 10 49
-49 -5 50
-50 2 51
-51 18 52
-52 -5 53
-53 8 54
-54 3 55
-55 -4 56
-56 -20 57
-57 -6 58
-58 7 59
-59 -6 60
-60 20 61
-61 -17 62
-62 2 63
-63 -3 64
-64 -8 65
-65 -9 66
-66 -11 67
-67 -11 68
-68 14 69
-69 2 70
-70 20 71
-71 -15 72
-72 -10 73
-73 19 74
-74 -20 75
-75 15 76
-76 4 77
-77 2 78
-78 -3 79
-79 1 80
-80 14 81
-81 -19 82
-82 -5 83
-83 -16 84
-84 13 85
-85 9 86
-86 -18 87
-87 -12 88
-88 -15 89
-89 10 90
-90 -8 91
-91 9 92
-92 -17 93
-93 -14 94
-94 -12 95
-95 1 96
-96 -4 97
-97 -5 98
-98 3 99
-99 17 100
-100 5 101
-101 9 102
-102 10 103
-103 15 104
-104 -9 105
-105 -11 106
-106 -15 107
-107 -1 108
-108 -20 109
-109 -13 110
-110 19 111
-111 -4 112
-112 15 113
-113 -16 114
-114 -17 115
-115 6 116
-116 5 117
-117 18 118
-118 -8 119
-119 -12 120
-120 16 121
-121 11 122
-122 18 123
-123 9 124
-124 15 125
-125 8 126
-126 -2 127
-127 -2 128
-128 20 129
-129 19 130
-130 19 131
-131 -2 132
-132 13 133
-133 -16 134
-134 -8 135
-135 18 136
-136 14 137
-137 5 138
-138 -16 139
-139 7 140
-140 -9 141
-141 -13 142
-142 -4 143
-143 18 144
-144 -2 145
-145 9 146
-146 -19 147
-147 11 148
-148 7 149
-149 -12 150
-150 9 151
-151 -3 152
-152 -2 153
-153 -16 154
-154 -18 155
-155 -1 156
-156 12 157
-157 11 158
-158 -8 159
-159 7 160
-160 13 161
-161 3 162
-162 -14 163
-163 -10 164
-164 -6 165
-165 -16 166
-166 18 167
-167 3 168
-168 4 169
-169 16 170
-170 7 171
-171 -3 172
-172 -19 173
-173 4 174
-174 -3 175
-175 -17 176
-176 -3 177
-177 -5 178
-178 -11 179
-179 -10 180
-180 -15 181
-181 -6 182
-182 11 183
-183 -4 184
-184 20 185
-185 5 186
-186 -18 187
-187 -6 188
-188 -13 189
-189 -2 190
-190 -1 191
-191 -12 192
-192 -7 193
-193 -8 194
-194 -7 195
-195 -13 196
-196 11 197
-197 -10 198
-198 -13 199
-199 -11 200
-200 -3 201
-201 -6 202
-202 -19 203
-203 -1 204
-204 -18 205
-205 -19 206
-206 1 207
-207 -2 208
-208 15 209
-209 16 210
-210 -12 211
-211 17 212
-212 14 213
-213 6 214
-214 13 215
-215 -9 216
-216 -12 217
-217 -7 218
-218 -16 219
-219 -18 220
-220 -7 221
-221 -9 222
-222 17 223
-223 -11 224
-224 2 225
-225 9 226
-226 6 227
-227 -1 228
-228 -14 229
-229 14 230
-230 -11 231
-231 -19 232
-232 -1 233
-233 5 234
-234 13 235
-235 -12 236
-236 13 237
-237 17 238
-238 15 239
-239 5 240
-240 11 241
-241 -9 242
-242 6 243
-243 11 244
-244 8 245
-245 -20 246
-246 15 247
-247 17 248
-248 7 249
-249 6 250
-250 13 251
-251 20 252
-252 10 253
-253 6 254
-254 -12 255
-255 -9 256
-256 14 257
-257 -6 258
-258 -5 259
-259 -15 260
-260 2 261
-261 -12 262
-262 -13 263
-263 -7 264
-264 15 265
-265 19 266
-266 16 267
-267 -17 268
-268 -4 269
-269 -3 270
-270 -15 271
-271 7 272
-272 15 273
-273 11 274
-274 7 275
-275 -4 276
-276 -20 277
-277 -8 278
-278 19 279
-279 18 280
-280 7 281
-281 -12 282
-282 -2 283
-283 17 284
-284 -10 285
-285 3 286
-286 -10 287
-287 -7 288
-288 -14 289
-289 8 290
-290 10 -19
